%block lattice_cart
  -1.6299   1.6299   1.6299
   1.6299  -1.6299   1.6299
   1.6299   1.6299  -1.6299
%endblock lattice_cart

%block positions_frac
Nb  0.00 0.00 0.00
%endblock positions_frac

%block species_pot
Nb NCP19
%endblock species_pot

kpoint_mp_grid 18  18  18

phonon_kpoint_mp_grid 9  9  9

symmetry_generate

%block phonon_fine_kpoint_list
1.2 0.8 0
1.19 0.81 0
1.18 0.82 0
1.17 0.83 0
1.16 0.84 0
1.15 0.85 0
1.14 0.86 0
1.13 0.87 0
1.12 0.88 0
1.11 0.89 0
1.1 0.9 0
1.09 0.91 0
1.08 0.92 0
1.07 0.93 0
1.06 0.94 0
1.05 0.95 0
1.04 0.96 0
1.03 0.97 0
1.02 0.98 0
1.01 0.99 0
1 1 0
0.99 1.01 0
0.98 1.02 0
0.97 1.03 0
0.96 1.04 0
0.95 1.05 0
0.94 1.06 0
0.93 1.07 0
0.92 1.08 0
0.91 1.09 0
0.9 1.1 0
0.89 1.11 0
0.88 1.12 0
0.87 1.13 0
0.86 1.14 0
0.85 1.15 0
0.84 1.16 0
0.83 1.17 0
0.82 1.18 0
0.81 1.19 0
0.8 1.2 0
%endblock phonon_fine_kpoint_list

