#
# CELL written by cell_write: Keith Refson, Oct 2006
#
%BLOCK lattice_cart
   ANG
       2.42617586816788       -4.20225987176430       0.00000000000000
       2.42617586816788        4.20225987176430       0.00000000000000
       0.00000000000000        0.00000000000000       5.35030448598545    
%ENDBLOCK lattice_cart

%BLOCK cell_constraints
      1   1   3
      0   0   0
%ENDBLOCK cell_constraints

%BLOCK positions_frac
   O              0.411708114524831       0.275681856821381       0.279407602909167
   O              0.724318143178620       0.136026257703450       0.946074269575834
   O              0.863973742296550       0.588291885475169       0.612740936242500
   O              0.136026257703450       0.724318143178620       0.053925730424166
   O              0.588291885475169       0.863973742296550       0.387259063757500
   O              0.275681856821381       0.411708114524831       0.720592397090833
   Si             0.464960105504908       0.000000000000000       0.166666666666667
   Si             0.000000000000000       0.464960105504908       0.833333333333333
   Si             0.535039894495092       0.535039894495092       0.500000000000000
%ENDBLOCK positions_frac

FIX_COM : true

%BLOCK species_pot
   O       o-optlda1.recpot
   Si      si-lda1.recpot
%ENDBLOCK species_pot

%BLOCK symmetry_ops
# Symm. op. 1       E
          1.000000000000000       0.000000000000000       0.000000000000000
          0.000000000000000       1.000000000000000       0.000000000000000
          0.000000000000000       0.000000000000000       1.000000000000000
          0.000000000000000       0.000000000000000       0.000000000000000
# Symm. op. 2     3_2
         -0.500000000000000       0.866025403784438       0.000000000000000
         -0.866025403784439      -0.500000000000000       0.000000000000000
          0.000000000000000       0.000000000000000       1.000000000000000
          0.000000000000000       0.000000000000000       0.666666666666667
# Symm. op. 3     3_1
         -0.500000000000000      -0.866025403784438       0.000000000000000
          0.866025403784439      -0.500000000000000       0.000000000000000
          0.000000000000000       0.000000000000000       1.000000000000000
          0.000000000000000       0.000000000000000       0.333333333333333
# Symm. op. 4       2
         -0.500000000000000      -0.866025403784438       0.000000000000000
         -0.866025403784439       0.500000000000000       0.000000000000000
          0.000000000000000       0.000000000000000      -1.000000000000000
          0.000000000000000       0.000000000000000       0.333333333333333
# Symm. op. 5       2
          1.000000000000000       0.000000000000000       0.000000000000000
          0.000000000000000      -1.000000000000000       0.000000000000000
          0.000000000000000       0.000000000000000      -1.000000000000000
          0.000000000000000       0.000000000000000       0.000000000000000
# Symm. op. 6       2
         -0.500000000000000       0.866025403784438       0.000000000000000
          0.866025403784439       0.500000000000000       0.000000000000000
          0.000000000000000       0.000000000000000      -1.000000000000000
          0.000000000000000       0.000000000000000       0.666666666666667
%ENDBLOCK symmetry_ops

kpoint_mp_grid :    5   5   4

phonon_kpoint_mp_grid :    5   5   4

phonon_kpoint_mp_offset :        0.000000000000000       0.000000000000000       0.125000000000000

#%BLOCK phonon_fine_kpoint_path
#  0.000000       0.000000  0.000000
# -0.3333333333   0.6666666667  0.000000
#  0.000000       0.500000  0.000000
#  0.000000       0.000000  0.000000
#  0.000000       0.000000  0.500000
# -0.3333333333   0.6666666667  0.500000
#  0.000000       0.500000  0.500000
#  0.000000       0.000000  0.500000
#%ENDBLOCK phonon_fine_kpoint_path

#phonon_fine_kpoint_path_spacing 0.02 1/ang

%BLOCK phonon_fine_kpoint_list
-3.9500,-4.0000,0.0000
-3.9375,-4.0000,0.0000
-3.9250,-4.0000,0.0000
-3.9125,-4.0000,0.0000
-3.9000,-4.0000,0.0000
-3.8875,-4.0000,0.0000
-3.8750,-4.0000,0.0000
-3.8625,-4.0000,0.0000
-3.8500,-4.0000,0.0000
-3.8375,-4.0000,0.0000
-3.8250,-4.0000,0.0000
-3.8125,-4.0000,0.0000
-3.8000,-4.0000,0.0000
-3.7875,-4.0000,0.0000
-3.7750,-4.0000,0.0000
-3.7625,-4.0000,0.0000
-3.7500,-4.0000,0.0000
-3.7375,-4.0000,0.0000
-3.7250,-4.0000,0.0000
-3.7125,-4.0000,0.0000
-3.7000,-4.0000,0.0000
-3.6875,-4.0000,0.0000
-3.6750,-4.0000,0.0000
-3.6625,-4.0000,0.0000
-3.6500,-4.0000,0.0000
-3.6375,-4.0000,0.0000
-3.6250,-4.0000,0.0000
-3.6125,-4.0000,0.0000
-3.6000,-4.0000,0.0000
-3.5875,-4.0000,0.0000
-3.5750,-4.0000,0.0000
-3.5625,-4.0000,0.0000
-3.5500,-4.0000,0.0000
-3.5375,-4.0000,0.0000
-3.5250,-4.0000,0.0000
-3.5125,-4.0000,0.0000
-3.5000,-4.0000,0.0000
-3.4875,-4.0000,0.0000
-3.4750,-4.0000,0.0000
-3.4625,-4.0000,0.0000
-3.4500,-4.0000,0.0000
-3.4375,-4.0000,0.0000
-3.4250,-4.0000,0.0000
-3.4125,-4.0000,0.0000
-3.4000,-4.0000,0.0000
-3.3875,-4.0000,0.0000
-3.3750,-4.0000,0.0000
-3.3625,-4.0000,0.0000
-3.3500,-4.0000,0.0000
-3.3375,-4.0000,0.0000
-3.3250,-4.0000,0.0000
-3.3125,-4.0000,0.0000
-3.3000,-4.0000,0.0000
-3.2875,-4.0000,0.0000
-3.2750,-4.0000,0.0000
-3.2625,-4.0000,0.0000
-3.2500,-4.0000,0.0000
-3.2375,-4.0000,0.0000
-3.2250,-4.0000,0.0000
-3.2125,-4.0000,0.0000
-3.2000,-4.0000,0.0000
-3.1875,-4.0000,0.0000
-3.1750,-4.0000,0.0000
-3.1625,-4.0000,0.0000
-3.1500,-4.0000,0.0000
-3.1375,-4.0000,0.0000
-3.1250,-4.0000,0.0000
-3.1125,-4.0000,0.0000
-3.1000,-4.0000,0.0000
-3.0875,-4.0000,0.0000
-3.0750,-4.0000,0.0000
-3.0625,-4.0000,0.0000
-3.0500,-4.0000,0.0000
-3.0375,-4.0000,0.0000
-3.0250,-4.0000,0.0000
-3.0125,-4.0000,0.0000
-3.0000,-4.0000,0.0000
-2.9875,-4.0000,0.0000
-2.9750,-4.0000,0.0000
-2.9625,-4.0000,0.0000
-2.9500,-4.0000,0.0000
-2.9375,-4.0000,0.0000
-2.9250,-4.0000,0.0000
-2.9125,-4.0000,0.0000
-2.9000,-4.0000,0.0000
-2.8875,-4.0000,0.0000
-2.8750,-4.0000,0.0000
-2.8625,-4.0000,0.0000
-2.8500,-4.0000,0.0000
-2.8375,-4.0000,0.0000
-2.8250,-4.0000,0.0000
-2.8125,-4.0000,0.0000
-2.8000,-4.0000,0.0000
-2.7875,-4.0000,0.0000
-2.7750,-4.0000,0.0000
-2.7625,-4.0000,0.0000
-2.7500,-4.0000,0.0000
-2.7375,-4.0000,0.0000
-2.7250,-4.0000,0.0000
-2.7125,-4.0000,0.0000
-2.7000,-4.0000,0.0000
-2.6875,-4.0000,0.0000
-2.6750,-4.0000,0.0000
-2.6625,-4.0000,0.0000
-2.6500,-4.0000,0.0000
-2.6375,-4.0000,0.0000
-2.6250,-4.0000,0.0000
-2.6125,-4.0000,0.0000
-2.6000,-4.0000,0.0000
-2.5875,-4.0000,0.0000
-2.5750,-4.0000,0.0000
-2.5625,-4.0000,0.0000
-2.5500,-4.0000,0.0000
-2.5375,-4.0000,0.0000
-2.5250,-4.0000,0.0000
-2.5125,-4.0000,0.0000
-2.5000,-4.0000,0.0000
-2.4875,-4.0000,0.0000
-2.4750,-4.0000,0.0000
-2.4625,-4.0000,0.0000
-2.4500,-4.0000,0.0000
-2.4375,-4.0000,0.0000
-2.4250,-4.0000,0.0000
-2.4125,-4.0000,0.0000
-2.4000,-4.0000,0.0000
-2.3875,-4.0000,0.0000
-2.3750,-4.0000,0.0000
-2.3625,-4.0000,0.0000
-2.3500,-4.0000,0.0000
-2.3375,-4.0000,0.0000
-2.3250,-4.0000,0.0000
-2.3125,-4.0000,0.0000
-2.3000,-4.0000,0.0000
-2.2875,-4.0000,0.0000
-2.2750,-4.0000,0.0000
-2.2625,-4.0000,0.0000
-2.2500,-4.0000,0.0000
-2.2375,-4.0000,0.0000
-2.2250,-4.0000,0.0000
-2.2125,-4.0000,0.0000
-2.2000,-4.0000,0.0000
-2.1875,-4.0000,0.0000
-2.1750,-4.0000,0.0000
-2.1625,-4.0000,0.0000
-2.1500,-4.0000,0.0000
-2.1375,-4.0000,0.0000
-2.1250,-4.0000,0.0000
-2.1125,-4.0000,0.0000
-2.1000,-4.0000,0.0000
-2.0875,-4.0000,0.0000
-2.0750,-4.0000,0.0000
-2.0625,-4.0000,0.0000
-2.0500,-4.0000,0.0000
-2.0375,-4.0000,0.0000
-2.0250,-4.0000,0.0000
-2.0125,-4.0000,0.0000
-2.0000,-4.0000,0.0000
-1.9875,-4.0000,0.0000
-1.9750,-4.0000,0.0000
-1.9625,-4.0000,0.0000
-1.9500,-4.0000,0.0000
-1.9375,-4.0000,0.0000
-1.9250,-4.0000,0.0000
-1.9125,-4.0000,0.0000
-1.9000,-4.0000,0.0000
-1.8875,-4.0000,0.0000
-1.8750,-4.0000,0.0000
-1.8625,-4.0000,0.0000
-1.8500,-4.0000,0.0000
-1.8375,-4.0000,0.0000
-1.8250,-4.0000,0.0000
-1.8125,-4.0000,0.0000
-1.8000,-4.0000,0.0000
-1.7875,-4.0000,0.0000
-1.7750,-4.0000,0.0000
-1.7625,-4.0000,0.0000
-1.7500,-4.0000,0.0000
-1.7375,-4.0000,0.0000
-1.7250,-4.0000,0.0000
-1.7125,-4.0000,0.0000
-1.7000,-4.0000,0.0000
-1.6875,-4.0000,0.0000
-1.6750,-4.0000,0.0000
-1.6625,-4.0000,0.0000
-1.6500,-4.0000,0.0000
-1.6375,-4.0000,0.0000
-1.6250,-4.0000,0.0000
-1.6125,-4.0000,0.0000
-1.6000,-4.0000,0.0000
-1.5875,-4.0000,0.0000
-1.5750,-4.0000,0.0000
-1.5625,-4.0000,0.0000
-1.5500,-4.0000,0.0000
-1.5375,-4.0000,0.0000
-1.5250,-4.0000,0.0000
-1.5125,-4.0000,0.0000
-1.5000,-4.0000,0.0000
-1.4875,-4.0000,0.0000
-1.4750,-4.0000,0.0000
-1.4625,-4.0000,0.0000
-1.4500,-4.0000,0.0000
-1.4375,-4.0000,0.0000
-1.4250,-4.0000,0.0000
-1.4125,-4.0000,0.0000
-1.4000,-4.0000,0.0000
-1.3875,-4.0000,0.0000
-1.3750,-4.0000,0.0000
-1.3625,-4.0000,0.0000
-1.3500,-4.0000,0.0000
-1.3375,-4.0000,0.0000
-1.3250,-4.0000,0.0000
-1.3125,-4.0000,0.0000
-1.3000,-4.0000,0.0000
-1.2875,-4.0000,0.0000
-1.2750,-4.0000,0.0000
-1.2625,-4.0000,0.0000
-1.2500,-4.0000,0.0000
-1.2375,-4.0000,0.0000
-1.2250,-4.0000,0.0000
-1.2125,-4.0000,0.0000
-1.2000,-4.0000,0.0000
-1.1875,-4.0000,0.0000
-1.1750,-4.0000,0.0000
-1.1625,-4.0000,0.0000
-1.1500,-4.0000,0.0000
-1.1375,-4.0000,0.0000
-1.1250,-4.0000,0.0000
-1.1125,-4.0000,0.0000
-1.1000,-4.0000,0.0000
-1.0875,-4.0000,0.0000
-1.0750,-4.0000,0.0000
-1.0625,-4.0000,0.0000
-1.0500,-4.0000,0.0000
-1.0375,-4.0000,0.0000
-1.0250,-4.0000,0.0000
-1.0125,-4.0000,0.0000
-1.0000,-4.0000,0.0000
-0.9875,-4.0000,0.0000
-0.9750,-4.0000,0.0000
-0.9625,-4.0000,0.0000
-0.9500,-4.0000,0.0000
-0.9375,-4.0000,0.0000
-0.9250,-4.0000,0.0000
-0.9125,-4.0000,0.0000
-0.9000,-4.0000,0.0000
-0.8875,-4.0000,0.0000
-0.8750,-4.0000,0.0000
-0.8625,-4.0000,0.0000
-0.8500,-4.0000,0.0000
-0.8375,-4.0000,0.0000
-0.8250,-4.0000,0.0000
-0.8125,-4.0000,0.0000
-0.8000,-4.0000,0.0000
-0.7875,-4.0000,0.0000
-0.7750,-4.0000,0.0000
-0.7625,-4.0000,0.0000
-0.7500,-4.0000,0.0000
-0.7375,-4.0000,0.0000
-0.7250,-4.0000,0.0000
-0.7125,-4.0000,0.0000
-0.7000,-4.0000,0.0000
-0.6875,-4.0000,0.0000
-0.6750,-4.0000,0.0000
-0.6625,-4.0000,0.0000
-0.6500,-4.0000,0.0000
-0.6375,-4.0000,0.0000
-0.6250,-4.0000,0.0000
-0.6125,-4.0000,0.0000
-0.6000,-4.0000,0.0000
-0.5875,-4.0000,0.0000
-0.5750,-4.0000,0.0000
-0.5625,-4.0000,0.0000
-0.5500,-4.0000,0.0000
-0.5375,-4.0000,0.0000
-0.5250,-4.0000,0.0000
-0.5125,-4.0000,0.0000
-0.5000,-4.0000,0.0000
-0.4875,-4.0000,0.0000
-0.4750,-4.0000,0.0000
-0.4625,-4.0000,0.0000
-0.4500,-4.0000,0.0000
-0.4375,-4.0000,0.0000
-0.4250,-4.0000,0.0000
-0.4125,-4.0000,0.0000
-0.4000,-4.0000,0.0000
-0.3875,-4.0000,0.0000
-0.3750,-4.0000,0.0000
-0.3625,-4.0000,0.0000
-0.3500,-4.0000,0.0000
-0.3375,-4.0000,0.0000
-0.3250,-4.0000,0.0000
-0.3125,-4.0000,0.0000
-0.3000,-4.0000,0.0000
-0.2875,-4.0000,0.0000
-0.2750,-4.0000,0.0000
-0.2625,-4.0000,0.0000
-0.2500,-4.0000,0.0000
-0.2375,-4.0000,0.0000
-0.2250,-4.0000,0.0000
-0.2125,-4.0000,0.0000
-0.2000,-4.0000,0.0000
-0.1875,-4.0000,0.0000
-0.1750,-4.0000,0.0000
-0.1625,-4.0000,0.0000
-0.1500,-4.0000,0.0000
-0.1375,-4.0000,0.0000
-0.1250,-4.0000,0.0000
-0.1125,-4.0000,0.0000
-0.1000,-4.0000,0.0000
-0.0875,-4.0000,0.0000
-0.0750,-4.0000,0.0000
-0.0625,-4.0000,0.0000
-0.0500,-4.0000,0.0000
-0.0375,-4.0000,0.0000
-0.0250,-4.0000,0.0000
-0.0125,-4.0000,0.0000
0.0000,-4.0000,0.0000
0.0125,-4.0000,0.0000
0.0250,-4.0000,0.0000
0.0375,-4.0000,0.0000
0.0500,-4.0000,0.0000
0.0625,-4.0000,0.0000
0.0750,-4.0000,0.0000
0.0875,-4.0000,0.0000
0.1000,-4.0000,0.0000
0.1125,-4.0000,0.0000
0.1250,-4.0000,0.0000
0.1375,-4.0000,0.0000
0.1500,-4.0000,0.0000
0.1625,-4.0000,0.0000
0.1750,-4.0000,0.0000
0.1875,-4.0000,0.0000
0.2000,-4.0000,0.0000
0.2125,-4.0000,0.0000
0.2250,-4.0000,0.0000
0.2375,-4.0000,0.0000
0.2500,-4.0000,0.0000
0.2625,-4.0000,0.0000
0.2750,-4.0000,0.0000
0.2875,-4.0000,0.0000
0.3000,-4.0000,0.0000
0.3125,-4.0000,0.0000
0.3250,-4.0000,0.0000
0.3375,-4.0000,0.0000
0.3500,-4.0000,0.0000
0.3625,-4.0000,0.0000
0.3750,-4.0000,0.0000
0.3875,-4.0000,0.0000
0.4000,-4.0000,0.0000
0.4125,-4.0000,0.0000
0.4250,-4.0000,0.0000
0.4375,-4.0000,0.0000
0.4500,-4.0000,0.0000
0.4625,-4.0000,0.0000
0.4750,-4.0000,0.0000
0.4875,-4.0000,0.0000
0.5000,-4.0000,0.0000
0.5125,-4.0000,0.0000
0.5250,-4.0000,0.0000
0.5375,-4.0000,0.0000
0.5500,-4.0000,0.0000
0.5625,-4.0000,0.0000
0.5750,-4.0000,0.0000
0.5875,-4.0000,0.0000
0.6000,-4.0000,0.0000
0.6125,-4.0000,0.0000
0.6250,-4.0000,0.0000
0.6375,-4.0000,0.0000
0.6500,-4.0000,0.0000
0.6625,-4.0000,0.0000
0.6750,-4.0000,0.0000
0.6875,-4.0000,0.0000
0.7000,-4.0000,0.0000
0.7125,-4.0000,0.0000
0.7250,-4.0000,0.0000
0.7375,-4.0000,0.0000
0.7500,-4.0000,0.0000
0.7625,-4.0000,0.0000
0.7750,-4.0000,0.0000
0.7875,-4.0000,0.0000
0.8000,-4.0000,0.0000
0.8125,-4.0000,0.0000
0.8250,-4.0000,0.0000
0.8375,-4.0000,0.0000
0.8500,-4.0000,0.0000
0.8625,-4.0000,0.0000
0.8750,-4.0000,0.0000
0.8875,-4.0000,0.0000
0.9000,-4.0000,0.0000
0.9125,-4.0000,0.0000
0.9250,-4.0000,0.0000
0.9375,-4.0000,0.0000
0.9500,-4.0000,0.0000
0.9625,-4.0000,0.0000
0.9750,-4.0000,0.0000
0.9875,-4.0000,0.0000
1.0000,-4.0000,0.0000
1.0125,-4.0000,0.0000
1.0250,-4.0000,0.0000
1.0375,-4.0000,0.0000
1.0500,-4.0000,0.0000
1.0625,-4.0000,0.0000
1.0750,-4.0000,0.0000
1.0875,-4.0000,0.0000
1.1000,-4.0000,0.0000
1.1125,-4.0000,0.0000
1.1250,-4.0000,0.0000
1.1375,-4.0000,0.0000
1.1500,-4.0000,0.0000
1.1625,-4.0000,0.0000
1.1750,-4.0000,0.0000
1.1875,-4.0000,0.0000
1.2000,-4.0000,0.0000
1.2125,-4.0000,0.0000
1.2250,-4.0000,0.0000
1.2375,-4.0000,0.0000
1.2500,-4.0000,0.0000
1.2625,-4.0000,0.0000
1.2750,-4.0000,0.0000
1.2875,-4.0000,0.0000
1.3000,-4.0000,0.0000
1.3125,-4.0000,0.0000
1.3250,-4.0000,0.0000
1.3375,-4.0000,0.0000
1.3500,-4.0000,0.0000
1.3625,-4.0000,0.0000
1.3750,-4.0000,0.0000
1.3875,-4.0000,0.0000
1.4000,-4.0000,0.0000
1.4125,-4.0000,0.0000
1.4250,-4.0000,0.0000
1.4375,-4.0000,0.0000
1.4500,-4.0000,0.0000
1.4625,-4.0000,0.0000
1.4750,-4.0000,0.0000
1.4875,-4.0000,0.0000
1.5000,-4.0000,0.0000
1.5125,-4.0000,0.0000
1.5250,-4.0000,0.0000
1.5375,-4.0000,0.0000
1.5500,-4.0000,0.0000
1.5625,-4.0000,0.0000
1.5750,-4.0000,0.0000
1.5875,-4.0000,0.0000
1.6000,-4.0000,0.0000
1.6125,-4.0000,0.0000
1.6250,-4.0000,0.0000
1.6375,-4.0000,0.0000
1.6500,-4.0000,0.0000
1.6625,-4.0000,0.0000
1.6750,-4.0000,0.0000
1.6875,-4.0000,0.0000
1.7000,-4.0000,0.0000
1.7125,-4.0000,0.0000
1.7250,-4.0000,0.0000
1.7375,-4.0000,0.0000
1.7500,-4.0000,0.0000
1.7625,-4.0000,0.0000
1.7750,-4.0000,0.0000
1.7875,-4.0000,0.0000
1.8000,-4.0000,0.0000
1.8125,-4.0000,0.0000
1.8250,-4.0000,0.0000
1.8375,-4.0000,0.0000
1.8500,-4.0000,0.0000
1.8625,-4.0000,0.0000
1.8750,-4.0000,0.0000
1.8875,-4.0000,0.0000
1.9000,-4.0000,0.0000
1.9125,-4.0000,0.0000
1.9250,-4.0000,0.0000
1.9375,-4.0000,0.0000
1.9500,-4.0000,0.0000
1.9625,-4.0000,0.0000
1.9750,-4.0000,0.0000
1.9875,-4.0000,0.0000
2.0000,-4.0000,0.0000
2.0125,-4.0000,0.0000
2.0250,-4.0000,0.0000
2.0375,-4.0000,0.0000
2.0500,-4.0000,0.0000
2.0625,-4.0000,0.0000
2.0750,-4.0000,0.0000
2.0875,-4.0000,0.0000
2.1000,-4.0000,0.0000
2.1125,-4.0000,0.0000
2.1250,-4.0000,0.0000
2.1375,-4.0000,0.0000
2.1500,-4.0000,0.0000
2.1625,-4.0000,0.0000
2.1750,-4.0000,0.0000
2.1875,-4.0000,0.0000
2.2000,-4.0000,0.0000
2.2125,-4.0000,0.0000
2.2250,-4.0000,0.0000
2.2375,-4.0000,0.0000
2.2500,-4.0000,0.0000
2.2625,-4.0000,0.0000
2.2750,-4.0000,0.0000
2.2875,-4.0000,0.0000
2.3000,-4.0000,0.0000
2.3125,-4.0000,0.0000
2.3250,-4.0000,0.0000
2.3375,-4.0000,0.0000
2.3500,-4.0000,0.0000
2.3625,-4.0000,0.0000
2.3750,-4.0000,0.0000
2.3875,-4.0000,0.0000
2.4000,-4.0000,0.0000
2.4125,-4.0000,0.0000
2.4250,-4.0000,0.0000
2.4375,-4.0000,0.0000
2.4500,-4.0000,0.0000
2.4625,-4.0000,0.0000
2.4750,-4.0000,0.0000
2.4875,-4.0000,0.0000
2.5000,-4.0000,0.0000
2.5125,-4.0000,0.0000
2.5250,-4.0000,0.0000
2.5375,-4.0000,0.0000
2.5500,-4.0000,0.0000
2.5625,-4.0000,0.0000
2.5750,-4.0000,0.0000
2.5875,-4.0000,0.0000
2.6000,-4.0000,0.0000
2.6125,-4.0000,0.0000
2.6250,-4.0000,0.0000
2.6375,-4.0000,0.0000
2.6500,-4.0000,0.0000
2.6625,-4.0000,0.0000
2.6750,-4.0000,0.0000
2.6875,-4.0000,0.0000
2.7000,-4.0000,0.0000
2.7125,-4.0000,0.0000
2.7250,-4.0000,0.0000
2.7375,-4.0000,0.0000
2.7500,-4.0000,0.0000
2.7625,-4.0000,0.0000
2.7750,-4.0000,0.0000
2.7875,-4.0000,0.0000
2.8000,-4.0000,0.0000
2.8125,-4.0000,0.0000
2.8250,-4.0000,0.0000
2.8375,-4.0000,0.0000
2.8500,-4.0000,0.0000
2.8625,-4.0000,0.0000
2.8750,-4.0000,0.0000
2.8875,-4.0000,0.0000
2.9000,-4.0000,0.0000
2.9125,-4.0000,0.0000
2.9250,-4.0000,0.0000
2.9375,-4.0000,0.0000
2.9500,-4.0000,0.0000
2.9625,-4.0000,0.0000
2.9750,-4.0000,0.0000
2.9875,-4.0000,0.0000
3.0000,-4.0000,0.0000
3.0125,-4.0000,0.0000
3.0250,-4.0000,0.0000
3.0375,-4.0000,0.0000
3.0500,-4.0000,0.0000
3.0625,-4.0000,0.0000
3.0750,-4.0000,0.0000
3.0875,-4.0000,0.0000
3.1000,-4.0000,0.0000
3.1125,-4.0000,0.0000
3.1250,-4.0000,0.0000
3.1375,-4.0000,0.0000
3.1500,-4.0000,0.0000
3.1625,-4.0000,0.0000
3.1750,-4.0000,0.0000
3.1875,-4.0000,0.0000
3.2000,-4.0000,0.0000
3.2125,-4.0000,0.0000
3.2250,-4.0000,0.0000
3.2375,-4.0000,0.0000
3.2500,-4.0000,0.0000
3.2625,-4.0000,0.0000
3.2750,-4.0000,0.0000
3.2875,-4.0000,0.0000
3.3000,-4.0000,0.0000
3.3125,-4.0000,0.0000
3.3250,-4.0000,0.0000
3.3375,-4.0000,0.0000
3.3500,-4.0000,0.0000
3.3625,-4.0000,0.0000
3.3750,-4.0000,0.0000
3.3875,-4.0000,0.0000
3.4000,-4.0000,0.0000
3.4125,-4.0000,0.0000
3.4250,-4.0000,0.0000
3.4375,-4.0000,0.0000
3.4500,-4.0000,0.0000
3.4625,-4.0000,0.0000
3.4750,-4.0000,0.0000
3.4875,-4.0000,0.0000
3.5000,-4.0000,0.0000
3.5125,-4.0000,0.0000
3.5250,-4.0000,0.0000
3.5375,-4.0000,0.0000
3.5500,-4.0000,0.0000
3.5625,-4.0000,0.0000
3.5750,-4.0000,0.0000
3.5875,-4.0000,0.0000
3.6000,-4.0000,0.0000
3.6125,-4.0000,0.0000
3.6250,-4.0000,0.0000
3.6375,-4.0000,0.0000
3.6500,-4.0000,0.0000
3.6625,-4.0000,0.0000
3.6750,-4.0000,0.0000
3.6875,-4.0000,0.0000
3.7000,-4.0000,0.0000
3.7125,-4.0000,0.0000
3.7250,-4.0000,0.0000
3.7375,-4.0000,0.0000
3.7500,-4.0000,0.0000
3.7625,-4.0000,0.0000
3.7750,-4.0000,0.0000
3.7875,-4.0000,0.0000
3.8000,-4.0000,0.0000
3.8125,-4.0000,0.0000
3.8250,-4.0000,0.0000
3.8375,-4.0000,0.0000
3.8500,-4.0000,0.0000
3.8625,-4.0000,0.0000
3.8750,-4.0000,0.0000
3.8875,-4.0000,0.0000
3.9000,-4.0000,0.0000
3.9125,-4.0000,0.0000
3.9250,-4.0000,0.0000
3.9375,-4.0000,0.0000
3.9500,-4.0000,0.0000
3.9625,-4.0000,0.0000
3.9750,-4.0000,0.0000
3.9875,-4.0000,0.0000
4.0000,-4.0000,0.0000
4.0125,-4.0000,0.0000
4.0250,-4.0000,0.0000
4.0375,-4.0000,0.0000
4.0500,-4.0000,0.0000
4.0625,-4.0000,0.0000
4.0750,-4.0000,0.0000
4.0875,-4.0000,0.0000
4.1000,-4.0000,0.0000
4.1125,-4.0000,0.0000
4.1250,-4.0000,0.0000
4.1375,-4.0000,0.0000
4.1500,-4.0000,0.0000
4.1625,-4.0000,0.0000
4.1750,-4.0000,0.0000
4.1875,-4.0000,0.0000
4.2000,-4.0000,0.0000
4.2125,-4.0000,0.0000
4.2250,-4.0000,0.0000
4.2375,-4.0000,0.0000
4.2500,-4.0000,0.0000
4.2625,-4.0000,0.0000
4.2750,-4.0000,0.0000
4.2875,-4.0000,0.0000
4.3000,-4.0000,0.0000
4.3125,-4.0000,0.0000
4.3250,-4.0000,0.0000
4.3375,-4.0000,0.0000
4.3500,-4.0000,0.0000
4.3625,-4.0000,0.0000
4.3750,-4.0000,0.0000
4.3875,-4.0000,0.0000
4.4000,-4.0000,0.0000
4.4125,-4.0000,0.0000
4.4250,-4.0000,0.0000
4.4375,-4.0000,0.0000
4.4500,-4.0000,0.0000
4.4625,-4.0000,0.0000
4.4750,-4.0000,0.0000
4.4875,-4.0000,0.0000
4.5000,-4.0000,0.0000
4.5125,-4.0000,0.0000
4.5250,-4.0000,0.0000
4.5375,-4.0000,0.0000
4.5500,-4.0000,0.0000
4.5625,-4.0000,0.0000
4.5750,-4.0000,0.0000
4.5875,-4.0000,0.0000
4.6000,-4.0000,0.0000
4.6125,-4.0000,0.0000
4.6250,-4.0000,0.0000
4.6375,-4.0000,0.0000
4.6500,-4.0000,0.0000
4.6625,-4.0000,0.0000
4.6750,-4.0000,0.0000
4.6875,-4.0000,0.0000
4.7000,-4.0000,0.0000
4.7125,-4.0000,0.0000
4.7250,-4.0000,0.0000
4.7375,-4.0000,0.0000
4.7500,-4.0000,0.0000
4.7625,-4.0000,0.0000
4.7750,-4.0000,0.0000
4.7875,-4.0000,0.0000
4.8000,-4.0000,0.0000
4.8125,-4.0000,0.0000
4.8250,-4.0000,0.0000
4.8375,-4.0000,0.0000
4.8500,-4.0000,0.0000
4.8625,-4.0000,0.0000
4.8750,-4.0000,0.0000
4.8875,-4.0000,0.0000
4.9000,-4.0000,0.0000
4.9125,-4.0000,0.0000
4.9250,-4.0000,0.0000
4.9375,-4.0000,0.0000
4.9500,-4.0000,0.0000
4.9625,-4.0000,0.0000
4.9750,-4.0000,0.0000
4.9875,-4.0000,0.0000
5.0000,-4.0000,0.0000
5.0125,-4.0000,0.0000
5.0250,-4.0000,0.0000
5.0375,-4.0000,0.0000
5.0500,-4.0000,0.0000
5.0625,-4.0000,0.0000
5.0750,-4.0000,0.0000
5.0875,-4.0000,0.0000
5.1000,-4.0000,0.0000
5.1125,-4.0000,0.0000
5.1250,-4.0000,0.0000
5.1375,-4.0000,0.0000
5.1500,-4.0000,0.0000
5.1625,-4.0000,0.0000
5.1750,-4.0000,0.0000
5.1875,-4.0000,0.0000
5.2000,-4.0000,0.0000
5.2125,-4.0000,0.0000
5.2250,-4.0000,0.0000
5.2375,-4.0000,0.0000
5.2500,-4.0000,0.0000
5.2625,-4.0000,0.0000
5.2750,-4.0000,0.0000
5.2875,-4.0000,0.0000
5.3000,-4.0000,0.0000
5.3125,-4.0000,0.0000
5.3250,-4.0000,0.0000
5.3375,-4.0000,0.0000
5.3500,-4.0000,0.0000
5.3625,-4.0000,0.0000
5.3750,-4.0000,0.0000
5.3875,-4.0000,0.0000
5.4000,-4.0000,0.0000
5.4125,-4.0000,0.0000
5.4250,-4.0000,0.0000
5.4375,-4.0000,0.0000
5.4500,-4.0000,0.0000
5.4625,-4.0000,0.0000
5.4750,-4.0000,0.0000
5.4875,-4.0000,0.0000
5.5000,-4.0000,0.0000
5.5125,-4.0000,0.0000
5.5250,-4.0000,0.0000
5.5375,-4.0000,0.0000
5.5500,-4.0000,0.0000
5.5625,-4.0000,0.0000
5.5750,-4.0000,0.0000
5.5875,-4.0000,0.0000
5.6000,-4.0000,0.0000
5.6125,-4.0000,0.0000
5.6250,-4.0000,0.0000
5.6375,-4.0000,0.0000
5.6500,-4.0000,0.0000
5.6625,-4.0000,0.0000
5.6750,-4.0000,0.0000
5.6875,-4.0000,0.0000
5.7000,-4.0000,0.0000
5.7125,-4.0000,0.0000
5.7250,-4.0000,0.0000
5.7375,-4.0000,0.0000
5.7500,-4.0000,0.0000
5.7625,-4.0000,0.0000
5.7750,-4.0000,0.0000
5.7875,-4.0000,0.0000
5.8000,-4.0000,0.0000
5.8125,-4.0000,0.0000
5.8250,-4.0000,0.0000
5.8375,-4.0000,0.0000
5.8500,-4.0000,0.0000
5.8625,-4.0000,0.0000
5.8750,-4.0000,0.0000
5.8875,-4.0000,0.0000
5.9000,-4.0000,0.0000
5.9125,-4.0000,0.0000
5.9250,-4.0000,0.0000
5.9375,-4.0000,0.0000
5.9500,-4.0000,0.0000
5.9625,-4.0000,0.0000
5.9750,-4.0000,0.0000
5.9875,-4.0000,0.0000
6.0000,-4.0000,0.0000
%ENDBLOCK phonon_fine_kpoint_list

#phonon_fine_kpoint_mp_grid : 4 4 4
