%block lattice_cart
  -1.6299   1.6299   1.6299
   1.6299  -1.6299   1.6299
   1.6299   1.6299  -1.6299
%endblock lattice_cart

%block positions_frac
Nb  0.00 0.00 0.00
%endblock positions_frac

%block species_pot
Nb NCP19
%endblock species_pot

kpoint_mp_grid 18  18  18

#%block phonon_fine_kpoint_path
# 0.0  0.0  0.0   ! Gamma
#-0.5  0.5  0.5   ! H (along Delta)
# 0.25 0.25 0.25  ! P
# 0.0  0.0  0.0   ! Gamma
# 0.5  0.0  0.0   ! N 
# 0.25 0.25 0.25  ! P
# 0.5  0.0  0.0   ! N 
# 0.5 -0.5  0.5   ! H
#%endblock phonon_fine_kpoint_path

#phonon_fine_kpoint_mp_grid 6 6 6

phonon_fine_kpoint_path_spacing 0.02 1/ang

phonon_kpoint_mp_grid 9  9  9
#phonon_kpoint_mp_offset  0.0833333333333333  0.0833333333333333  0.0833333333333333

%block phonon_fine_kpoint_list
-0.45000000 -0.45000000 -0.45000000
-0.45000000 -0.45000000 -0.35000000
-0.45000000 -0.45000000 -0.25000000
-0.45000000 -0.45000000 -0.15000000
-0.45000000 -0.45000000 -0.05000000
-0.45000000 -0.45000000 0.05000000
-0.45000000 -0.45000000 0.15000000
-0.45000000 -0.45000000 0.25000000
-0.45000000 -0.45000000 0.35000000
-0.45000000 -0.45000000 0.45000000
-0.45000000 -0.35000000 -0.45000000
-0.45000000 -0.35000000 -0.35000000
-0.45000000 -0.35000000 -0.25000000
-0.45000000 -0.35000000 -0.15000000
-0.45000000 -0.35000000 -0.05000000
-0.45000000 -0.35000000 0.05000000
-0.45000000 -0.35000000 0.15000000
-0.45000000 -0.35000000 0.25000000
-0.45000000 -0.35000000 0.35000000
-0.45000000 -0.35000000 0.45000000
-0.45000000 -0.25000000 -0.45000000
-0.45000000 -0.25000000 -0.35000000
-0.45000000 -0.25000000 -0.25000000
-0.45000000 -0.25000000 -0.15000000
-0.45000000 -0.25000000 -0.05000000
-0.45000000 -0.25000000 0.05000000
-0.45000000 -0.25000000 0.15000000
-0.45000000 -0.25000000 0.25000000
-0.45000000 -0.25000000 0.35000000
-0.45000000 -0.25000000 0.45000000
-0.45000000 -0.15000000 -0.45000000
-0.45000000 -0.15000000 -0.35000000
-0.45000000 -0.15000000 -0.25000000
-0.45000000 -0.15000000 -0.15000000
-0.45000000 -0.15000000 -0.05000000
-0.45000000 -0.15000000 0.05000000
-0.45000000 -0.15000000 0.15000000
-0.45000000 -0.15000000 0.25000000
-0.45000000 -0.15000000 0.35000000
-0.45000000 -0.15000000 0.45000000
-0.45000000 -0.05000000 -0.45000000
-0.45000000 -0.05000000 -0.35000000
-0.45000000 -0.05000000 -0.25000000
-0.45000000 -0.05000000 -0.15000000
-0.45000000 -0.05000000 -0.05000000
-0.45000000 -0.05000000 0.05000000
-0.45000000 -0.05000000 0.15000000
-0.45000000 -0.05000000 0.25000000
-0.45000000 -0.05000000 0.35000000
-0.45000000 -0.05000000 0.45000000
-0.45000000 0.05000000 -0.45000000
-0.45000000 0.05000000 -0.35000000
-0.45000000 0.05000000 -0.25000000
-0.45000000 0.05000000 -0.15000000
-0.45000000 0.05000000 -0.05000000
-0.45000000 0.05000000 0.05000000
-0.45000000 0.05000000 0.15000000
-0.45000000 0.05000000 0.25000000
-0.45000000 0.05000000 0.35000000
-0.45000000 0.05000000 0.45000000
-0.45000000 0.15000000 -0.45000000
-0.45000000 0.15000000 -0.35000000
-0.45000000 0.15000000 -0.25000000
-0.45000000 0.15000000 -0.15000000
-0.45000000 0.15000000 -0.05000000
-0.45000000 0.15000000 0.05000000
-0.45000000 0.15000000 0.15000000
-0.45000000 0.15000000 0.25000000
-0.45000000 0.15000000 0.35000000
-0.45000000 0.15000000 0.45000000
-0.45000000 0.25000000 -0.45000000
-0.45000000 0.25000000 -0.35000000
-0.45000000 0.25000000 -0.25000000
-0.45000000 0.25000000 -0.15000000
-0.45000000 0.25000000 -0.05000000
-0.45000000 0.25000000 0.05000000
-0.45000000 0.25000000 0.15000000
-0.45000000 0.25000000 0.25000000
-0.45000000 0.25000000 0.35000000
-0.45000000 0.25000000 0.45000000
-0.45000000 0.35000000 -0.45000000
-0.45000000 0.35000000 -0.35000000
-0.45000000 0.35000000 -0.25000000
-0.45000000 0.35000000 -0.15000000
-0.45000000 0.35000000 -0.05000000
-0.45000000 0.35000000 0.05000000
-0.45000000 0.35000000 0.15000000
-0.45000000 0.35000000 0.25000000
-0.45000000 0.35000000 0.35000000
-0.45000000 0.35000000 0.45000000
-0.45000000 0.45000000 -0.45000000
-0.45000000 0.45000000 -0.35000000
-0.45000000 0.45000000 -0.25000000
-0.45000000 0.45000000 -0.15000000
-0.45000000 0.45000000 -0.05000000
-0.45000000 0.45000000 0.05000000
-0.45000000 0.45000000 0.15000000
-0.45000000 0.45000000 0.25000000
-0.45000000 0.45000000 0.35000000
-0.45000000 0.45000000 0.45000000
-0.35000000 -0.45000000 -0.45000000
-0.35000000 -0.45000000 -0.35000000
-0.35000000 -0.45000000 -0.25000000
-0.35000000 -0.45000000 -0.15000000
-0.35000000 -0.45000000 -0.05000000
-0.35000000 -0.45000000 0.05000000
-0.35000000 -0.45000000 0.15000000
-0.35000000 -0.45000000 0.25000000
-0.35000000 -0.45000000 0.35000000
-0.35000000 -0.45000000 0.45000000
-0.35000000 -0.35000000 -0.45000000
-0.35000000 -0.35000000 -0.35000000
-0.35000000 -0.35000000 -0.25000000
-0.35000000 -0.35000000 -0.15000000
-0.35000000 -0.35000000 -0.05000000
-0.35000000 -0.35000000 0.05000000
-0.35000000 -0.35000000 0.15000000
-0.35000000 -0.35000000 0.25000000
-0.35000000 -0.35000000 0.35000000
-0.35000000 -0.35000000 0.45000000
-0.35000000 -0.25000000 -0.45000000
-0.35000000 -0.25000000 -0.35000000
-0.35000000 -0.25000000 -0.25000000
-0.35000000 -0.25000000 -0.15000000
-0.35000000 -0.25000000 -0.05000000
-0.35000000 -0.25000000 0.05000000
-0.35000000 -0.25000000 0.15000000
-0.35000000 -0.25000000 0.25000000
-0.35000000 -0.25000000 0.35000000
-0.35000000 -0.25000000 0.45000000
-0.35000000 -0.15000000 -0.45000000
-0.35000000 -0.15000000 -0.35000000
-0.35000000 -0.15000000 -0.25000000
-0.35000000 -0.15000000 -0.15000000
-0.35000000 -0.15000000 -0.05000000
-0.35000000 -0.15000000 0.05000000
-0.35000000 -0.15000000 0.15000000
-0.35000000 -0.15000000 0.25000000
-0.35000000 -0.15000000 0.35000000
-0.35000000 -0.15000000 0.45000000
-0.35000000 -0.05000000 -0.45000000
-0.35000000 -0.05000000 -0.35000000
-0.35000000 -0.05000000 -0.25000000
-0.35000000 -0.05000000 -0.15000000
-0.35000000 -0.05000000 -0.05000000
-0.35000000 -0.05000000 0.05000000
-0.35000000 -0.05000000 0.15000000
-0.35000000 -0.05000000 0.25000000
-0.35000000 -0.05000000 0.35000000
-0.35000000 -0.05000000 0.45000000
-0.35000000 0.05000000 -0.45000000
-0.35000000 0.05000000 -0.35000000
-0.35000000 0.05000000 -0.25000000
-0.35000000 0.05000000 -0.15000000
-0.35000000 0.05000000 -0.05000000
-0.35000000 0.05000000 0.05000000
-0.35000000 0.05000000 0.15000000
-0.35000000 0.05000000 0.25000000
-0.35000000 0.05000000 0.35000000
-0.35000000 0.05000000 0.45000000
-0.35000000 0.15000000 -0.45000000
-0.35000000 0.15000000 -0.35000000
-0.35000000 0.15000000 -0.25000000
-0.35000000 0.15000000 -0.15000000
-0.35000000 0.15000000 -0.05000000
-0.35000000 0.15000000 0.05000000
-0.35000000 0.15000000 0.15000000
-0.35000000 0.15000000 0.25000000
-0.35000000 0.15000000 0.35000000
-0.35000000 0.15000000 0.45000000
-0.35000000 0.25000000 -0.45000000
-0.35000000 0.25000000 -0.35000000
-0.35000000 0.25000000 -0.25000000
-0.35000000 0.25000000 -0.15000000
-0.35000000 0.25000000 -0.05000000
-0.35000000 0.25000000 0.05000000
-0.35000000 0.25000000 0.15000000
-0.35000000 0.25000000 0.25000000
-0.35000000 0.25000000 0.35000000
-0.35000000 0.25000000 0.45000000
-0.35000000 0.35000000 -0.45000000
-0.35000000 0.35000000 -0.35000000
-0.35000000 0.35000000 -0.25000000
-0.35000000 0.35000000 -0.15000000
-0.35000000 0.35000000 -0.05000000
-0.35000000 0.35000000 0.05000000
-0.35000000 0.35000000 0.15000000
-0.35000000 0.35000000 0.25000000
-0.35000000 0.35000000 0.35000000
-0.35000000 0.35000000 0.45000000
-0.35000000 0.45000000 -0.45000000
-0.35000000 0.45000000 -0.35000000
-0.35000000 0.45000000 -0.25000000
-0.35000000 0.45000000 -0.15000000
-0.35000000 0.45000000 -0.05000000
-0.35000000 0.45000000 0.05000000
-0.35000000 0.45000000 0.15000000
-0.35000000 0.45000000 0.25000000
-0.35000000 0.45000000 0.35000000
-0.35000000 0.45000000 0.45000000
-0.25000000 -0.45000000 -0.45000000
-0.25000000 -0.45000000 -0.35000000
-0.25000000 -0.45000000 -0.25000000
-0.25000000 -0.45000000 -0.15000000
-0.25000000 -0.45000000 -0.05000000
-0.25000000 -0.45000000 0.05000000
-0.25000000 -0.45000000 0.15000000
-0.25000000 -0.45000000 0.25000000
-0.25000000 -0.45000000 0.35000000
-0.25000000 -0.45000000 0.45000000
-0.25000000 -0.35000000 -0.45000000
-0.25000000 -0.35000000 -0.35000000
-0.25000000 -0.35000000 -0.25000000
-0.25000000 -0.35000000 -0.15000000
-0.25000000 -0.35000000 -0.05000000
-0.25000000 -0.35000000 0.05000000
-0.25000000 -0.35000000 0.15000000
-0.25000000 -0.35000000 0.25000000
-0.25000000 -0.35000000 0.35000000
-0.25000000 -0.35000000 0.45000000
-0.25000000 -0.25000000 -0.45000000
-0.25000000 -0.25000000 -0.35000000
-0.25000000 -0.25000000 -0.25000000
-0.25000000 -0.25000000 -0.15000000
-0.25000000 -0.25000000 -0.05000000
-0.25000000 -0.25000000 0.05000000
-0.25000000 -0.25000000 0.15000000
-0.25000000 -0.25000000 0.25000000
-0.25000000 -0.25000000 0.35000000
-0.25000000 -0.25000000 0.45000000
-0.25000000 -0.15000000 -0.45000000
-0.25000000 -0.15000000 -0.35000000
-0.25000000 -0.15000000 -0.25000000
-0.25000000 -0.15000000 -0.15000000
-0.25000000 -0.15000000 -0.05000000
-0.25000000 -0.15000000 0.05000000
-0.25000000 -0.15000000 0.15000000
-0.25000000 -0.15000000 0.25000000
-0.25000000 -0.15000000 0.35000000
-0.25000000 -0.15000000 0.45000000
-0.25000000 -0.05000000 -0.45000000
-0.25000000 -0.05000000 -0.35000000
-0.25000000 -0.05000000 -0.25000000
-0.25000000 -0.05000000 -0.15000000
-0.25000000 -0.05000000 -0.05000000
-0.25000000 -0.05000000 0.05000000
-0.25000000 -0.05000000 0.15000000
-0.25000000 -0.05000000 0.25000000
-0.25000000 -0.05000000 0.35000000
-0.25000000 -0.05000000 0.45000000
-0.25000000 0.05000000 -0.45000000
-0.25000000 0.05000000 -0.35000000
-0.25000000 0.05000000 -0.25000000
-0.25000000 0.05000000 -0.15000000
-0.25000000 0.05000000 -0.05000000
-0.25000000 0.05000000 0.05000000
-0.25000000 0.05000000 0.15000000
-0.25000000 0.05000000 0.25000000
-0.25000000 0.05000000 0.35000000
-0.25000000 0.05000000 0.45000000
-0.25000000 0.15000000 -0.45000000
-0.25000000 0.15000000 -0.35000000
-0.25000000 0.15000000 -0.25000000
-0.25000000 0.15000000 -0.15000000
-0.25000000 0.15000000 -0.05000000
-0.25000000 0.15000000 0.05000000
-0.25000000 0.15000000 0.15000000
-0.25000000 0.15000000 0.25000000
-0.25000000 0.15000000 0.35000000
-0.25000000 0.15000000 0.45000000
-0.25000000 0.25000000 -0.45000000
-0.25000000 0.25000000 -0.35000000
-0.25000000 0.25000000 -0.25000000
-0.25000000 0.25000000 -0.15000000
-0.25000000 0.25000000 -0.05000000
-0.25000000 0.25000000 0.05000000
-0.25000000 0.25000000 0.15000000
-0.25000000 0.25000000 0.25000000
-0.25000000 0.25000000 0.35000000
-0.25000000 0.25000000 0.45000000
-0.25000000 0.35000000 -0.45000000
-0.25000000 0.35000000 -0.35000000
-0.25000000 0.35000000 -0.25000000
-0.25000000 0.35000000 -0.15000000
-0.25000000 0.35000000 -0.05000000
-0.25000000 0.35000000 0.05000000
-0.25000000 0.35000000 0.15000000
-0.25000000 0.35000000 0.25000000
-0.25000000 0.35000000 0.35000000
-0.25000000 0.35000000 0.45000000
-0.25000000 0.45000000 -0.45000000
-0.25000000 0.45000000 -0.35000000
-0.25000000 0.45000000 -0.25000000
-0.25000000 0.45000000 -0.15000000
-0.25000000 0.45000000 -0.05000000
-0.25000000 0.45000000 0.05000000
-0.25000000 0.45000000 0.15000000
-0.25000000 0.45000000 0.25000000
-0.25000000 0.45000000 0.35000000
-0.25000000 0.45000000 0.45000000
-0.15000000 -0.45000000 -0.45000000
-0.15000000 -0.45000000 -0.35000000
-0.15000000 -0.45000000 -0.25000000
-0.15000000 -0.45000000 -0.15000000
-0.15000000 -0.45000000 -0.05000000
-0.15000000 -0.45000000 0.05000000
-0.15000000 -0.45000000 0.15000000
-0.15000000 -0.45000000 0.25000000
-0.15000000 -0.45000000 0.35000000
-0.15000000 -0.45000000 0.45000000
-0.15000000 -0.35000000 -0.45000000
-0.15000000 -0.35000000 -0.35000000
-0.15000000 -0.35000000 -0.25000000
-0.15000000 -0.35000000 -0.15000000
-0.15000000 -0.35000000 -0.05000000
-0.15000000 -0.35000000 0.05000000
-0.15000000 -0.35000000 0.15000000
-0.15000000 -0.35000000 0.25000000
-0.15000000 -0.35000000 0.35000000
-0.15000000 -0.35000000 0.45000000
-0.15000000 -0.25000000 -0.45000000
-0.15000000 -0.25000000 -0.35000000
-0.15000000 -0.25000000 -0.25000000
-0.15000000 -0.25000000 -0.15000000
-0.15000000 -0.25000000 -0.05000000
-0.15000000 -0.25000000 0.05000000
-0.15000000 -0.25000000 0.15000000
-0.15000000 -0.25000000 0.25000000
-0.15000000 -0.25000000 0.35000000
-0.15000000 -0.25000000 0.45000000
-0.15000000 -0.15000000 -0.45000000
-0.15000000 -0.15000000 -0.35000000
-0.15000000 -0.15000000 -0.25000000
-0.15000000 -0.15000000 -0.15000000
-0.15000000 -0.15000000 -0.05000000
-0.15000000 -0.15000000 0.05000000
-0.15000000 -0.15000000 0.15000000
-0.15000000 -0.15000000 0.25000000
-0.15000000 -0.15000000 0.35000000
-0.15000000 -0.15000000 0.45000000
-0.15000000 -0.05000000 -0.45000000
-0.15000000 -0.05000000 -0.35000000
-0.15000000 -0.05000000 -0.25000000
-0.15000000 -0.05000000 -0.15000000
-0.15000000 -0.05000000 -0.05000000
-0.15000000 -0.05000000 0.05000000
-0.15000000 -0.05000000 0.15000000
-0.15000000 -0.05000000 0.25000000
-0.15000000 -0.05000000 0.35000000
-0.15000000 -0.05000000 0.45000000
-0.15000000 0.05000000 -0.45000000
-0.15000000 0.05000000 -0.35000000
-0.15000000 0.05000000 -0.25000000
-0.15000000 0.05000000 -0.15000000
-0.15000000 0.05000000 -0.05000000
-0.15000000 0.05000000 0.05000000
-0.15000000 0.05000000 0.15000000
-0.15000000 0.05000000 0.25000000
-0.15000000 0.05000000 0.35000000
-0.15000000 0.05000000 0.45000000
-0.15000000 0.15000000 -0.45000000
-0.15000000 0.15000000 -0.35000000
-0.15000000 0.15000000 -0.25000000
-0.15000000 0.15000000 -0.15000000
-0.15000000 0.15000000 -0.05000000
-0.15000000 0.15000000 0.05000000
-0.15000000 0.15000000 0.15000000
-0.15000000 0.15000000 0.25000000
-0.15000000 0.15000000 0.35000000
-0.15000000 0.15000000 0.45000000
-0.15000000 0.25000000 -0.45000000
-0.15000000 0.25000000 -0.35000000
-0.15000000 0.25000000 -0.25000000
-0.15000000 0.25000000 -0.15000000
-0.15000000 0.25000000 -0.05000000
-0.15000000 0.25000000 0.05000000
-0.15000000 0.25000000 0.15000000
-0.15000000 0.25000000 0.25000000
-0.15000000 0.25000000 0.35000000
-0.15000000 0.25000000 0.45000000
-0.15000000 0.35000000 -0.45000000
-0.15000000 0.35000000 -0.35000000
-0.15000000 0.35000000 -0.25000000
-0.15000000 0.35000000 -0.15000000
-0.15000000 0.35000000 -0.05000000
-0.15000000 0.35000000 0.05000000
-0.15000000 0.35000000 0.15000000
-0.15000000 0.35000000 0.25000000
-0.15000000 0.35000000 0.35000000
-0.15000000 0.35000000 0.45000000
-0.15000000 0.45000000 -0.45000000
-0.15000000 0.45000000 -0.35000000
-0.15000000 0.45000000 -0.25000000
-0.15000000 0.45000000 -0.15000000
-0.15000000 0.45000000 -0.05000000
-0.15000000 0.45000000 0.05000000
-0.15000000 0.45000000 0.15000000
-0.15000000 0.45000000 0.25000000
-0.15000000 0.45000000 0.35000000
-0.15000000 0.45000000 0.45000000
-0.05000000 -0.45000000 -0.45000000
-0.05000000 -0.45000000 -0.35000000
-0.05000000 -0.45000000 -0.25000000
-0.05000000 -0.45000000 -0.15000000
-0.05000000 -0.45000000 -0.05000000
-0.05000000 -0.45000000 0.05000000
-0.05000000 -0.45000000 0.15000000
-0.05000000 -0.45000000 0.25000000
-0.05000000 -0.45000000 0.35000000
-0.05000000 -0.45000000 0.45000000
-0.05000000 -0.35000000 -0.45000000
-0.05000000 -0.35000000 -0.35000000
-0.05000000 -0.35000000 -0.25000000
-0.05000000 -0.35000000 -0.15000000
-0.05000000 -0.35000000 -0.05000000
-0.05000000 -0.35000000 0.05000000
-0.05000000 -0.35000000 0.15000000
-0.05000000 -0.35000000 0.25000000
-0.05000000 -0.35000000 0.35000000
-0.05000000 -0.35000000 0.45000000
-0.05000000 -0.25000000 -0.45000000
-0.05000000 -0.25000000 -0.35000000
-0.05000000 -0.25000000 -0.25000000
-0.05000000 -0.25000000 -0.15000000
-0.05000000 -0.25000000 -0.05000000
-0.05000000 -0.25000000 0.05000000
-0.05000000 -0.25000000 0.15000000
-0.05000000 -0.25000000 0.25000000
-0.05000000 -0.25000000 0.35000000
-0.05000000 -0.25000000 0.45000000
-0.05000000 -0.15000000 -0.45000000
-0.05000000 -0.15000000 -0.35000000
-0.05000000 -0.15000000 -0.25000000
-0.05000000 -0.15000000 -0.15000000
-0.05000000 -0.15000000 -0.05000000
-0.05000000 -0.15000000 0.05000000
-0.05000000 -0.15000000 0.15000000
-0.05000000 -0.15000000 0.25000000
-0.05000000 -0.15000000 0.35000000
-0.05000000 -0.15000000 0.45000000
-0.05000000 -0.05000000 -0.45000000
-0.05000000 -0.05000000 -0.35000000
-0.05000000 -0.05000000 -0.25000000
-0.05000000 -0.05000000 -0.15000000
-0.05000000 -0.05000000 -0.05000000
-0.05000000 -0.05000000 0.05000000
-0.05000000 -0.05000000 0.15000000
-0.05000000 -0.05000000 0.25000000
-0.05000000 -0.05000000 0.35000000
-0.05000000 -0.05000000 0.45000000
-0.05000000 0.05000000 -0.45000000
-0.05000000 0.05000000 -0.35000000
-0.05000000 0.05000000 -0.25000000
-0.05000000 0.05000000 -0.15000000
-0.05000000 0.05000000 -0.05000000
-0.05000000 0.05000000 0.05000000
-0.05000000 0.05000000 0.15000000
-0.05000000 0.05000000 0.25000000
-0.05000000 0.05000000 0.35000000
-0.05000000 0.05000000 0.45000000
-0.05000000 0.15000000 -0.45000000
-0.05000000 0.15000000 -0.35000000
-0.05000000 0.15000000 -0.25000000
-0.05000000 0.15000000 -0.15000000
-0.05000000 0.15000000 -0.05000000
-0.05000000 0.15000000 0.05000000
-0.05000000 0.15000000 0.15000000
-0.05000000 0.15000000 0.25000000
-0.05000000 0.15000000 0.35000000
-0.05000000 0.15000000 0.45000000
-0.05000000 0.25000000 -0.45000000
-0.05000000 0.25000000 -0.35000000
-0.05000000 0.25000000 -0.25000000
-0.05000000 0.25000000 -0.15000000
-0.05000000 0.25000000 -0.05000000
-0.05000000 0.25000000 0.05000000
-0.05000000 0.25000000 0.15000000
-0.05000000 0.25000000 0.25000000
-0.05000000 0.25000000 0.35000000
-0.05000000 0.25000000 0.45000000
-0.05000000 0.35000000 -0.45000000
-0.05000000 0.35000000 -0.35000000
-0.05000000 0.35000000 -0.25000000
-0.05000000 0.35000000 -0.15000000
-0.05000000 0.35000000 -0.05000000
-0.05000000 0.35000000 0.05000000
-0.05000000 0.35000000 0.15000000
-0.05000000 0.35000000 0.25000000
-0.05000000 0.35000000 0.35000000
-0.05000000 0.35000000 0.45000000
-0.05000000 0.45000000 -0.45000000
-0.05000000 0.45000000 -0.35000000
-0.05000000 0.45000000 -0.25000000
-0.05000000 0.45000000 -0.15000000
-0.05000000 0.45000000 -0.05000000
-0.05000000 0.45000000 0.05000000
-0.05000000 0.45000000 0.15000000
-0.05000000 0.45000000 0.25000000
-0.05000000 0.45000000 0.35000000
-0.05000000 0.45000000 0.45000000
0.05000000 -0.45000000 -0.45000000
0.05000000 -0.45000000 -0.35000000
0.05000000 -0.45000000 -0.25000000
0.05000000 -0.45000000 -0.15000000
0.05000000 -0.45000000 -0.05000000
0.05000000 -0.45000000 0.05000000
0.05000000 -0.45000000 0.15000000
0.05000000 -0.45000000 0.25000000
0.05000000 -0.45000000 0.35000000
0.05000000 -0.45000000 0.45000000
0.05000000 -0.35000000 -0.45000000
0.05000000 -0.35000000 -0.35000000
0.05000000 -0.35000000 -0.25000000
0.05000000 -0.35000000 -0.15000000
0.05000000 -0.35000000 -0.05000000
0.05000000 -0.35000000 0.05000000
0.05000000 -0.35000000 0.15000000
0.05000000 -0.35000000 0.25000000
0.05000000 -0.35000000 0.35000000
0.05000000 -0.35000000 0.45000000
0.05000000 -0.25000000 -0.45000000
0.05000000 -0.25000000 -0.35000000
0.05000000 -0.25000000 -0.25000000
0.05000000 -0.25000000 -0.15000000
0.05000000 -0.25000000 -0.05000000
0.05000000 -0.25000000 0.05000000
0.05000000 -0.25000000 0.15000000
0.05000000 -0.25000000 0.25000000
0.05000000 -0.25000000 0.35000000
0.05000000 -0.25000000 0.45000000
0.05000000 -0.15000000 -0.45000000
0.05000000 -0.15000000 -0.35000000
0.05000000 -0.15000000 -0.25000000
0.05000000 -0.15000000 -0.15000000
0.05000000 -0.15000000 -0.05000000
0.05000000 -0.15000000 0.05000000
0.05000000 -0.15000000 0.15000000
0.05000000 -0.15000000 0.25000000
0.05000000 -0.15000000 0.35000000
0.05000000 -0.15000000 0.45000000
0.05000000 -0.05000000 -0.45000000
0.05000000 -0.05000000 -0.35000000
0.05000000 -0.05000000 -0.25000000
0.05000000 -0.05000000 -0.15000000
0.05000000 -0.05000000 -0.05000000
0.05000000 -0.05000000 0.05000000
0.05000000 -0.05000000 0.15000000
0.05000000 -0.05000000 0.25000000
0.05000000 -0.05000000 0.35000000
0.05000000 -0.05000000 0.45000000
0.05000000 0.05000000 -0.45000000
0.05000000 0.05000000 -0.35000000
0.05000000 0.05000000 -0.25000000
0.05000000 0.05000000 -0.15000000
0.05000000 0.05000000 -0.05000000
0.05000000 0.05000000 0.05000000
0.05000000 0.05000000 0.15000000
0.05000000 0.05000000 0.25000000
0.05000000 0.05000000 0.35000000
0.05000000 0.05000000 0.45000000
0.05000000 0.15000000 -0.45000000
0.05000000 0.15000000 -0.35000000
0.05000000 0.15000000 -0.25000000
0.05000000 0.15000000 -0.15000000
0.05000000 0.15000000 -0.05000000
0.05000000 0.15000000 0.05000000
0.05000000 0.15000000 0.15000000
0.05000000 0.15000000 0.25000000
0.05000000 0.15000000 0.35000000
0.05000000 0.15000000 0.45000000
0.05000000 0.25000000 -0.45000000
0.05000000 0.25000000 -0.35000000
0.05000000 0.25000000 -0.25000000
0.05000000 0.25000000 -0.15000000
0.05000000 0.25000000 -0.05000000
0.05000000 0.25000000 0.05000000
0.05000000 0.25000000 0.15000000
0.05000000 0.25000000 0.25000000
0.05000000 0.25000000 0.35000000
0.05000000 0.25000000 0.45000000
0.05000000 0.35000000 -0.45000000
0.05000000 0.35000000 -0.35000000
0.05000000 0.35000000 -0.25000000
0.05000000 0.35000000 -0.15000000
0.05000000 0.35000000 -0.05000000
0.05000000 0.35000000 0.05000000
0.05000000 0.35000000 0.15000000
0.05000000 0.35000000 0.25000000
0.05000000 0.35000000 0.35000000
0.05000000 0.35000000 0.45000000
0.05000000 0.45000000 -0.45000000
0.05000000 0.45000000 -0.35000000
0.05000000 0.45000000 -0.25000000
0.05000000 0.45000000 -0.15000000
0.05000000 0.45000000 -0.05000000
0.05000000 0.45000000 0.05000000
0.05000000 0.45000000 0.15000000
0.05000000 0.45000000 0.25000000
0.05000000 0.45000000 0.35000000
0.05000000 0.45000000 0.45000000
0.15000000 -0.45000000 -0.45000000
0.15000000 -0.45000000 -0.35000000
0.15000000 -0.45000000 -0.25000000
0.15000000 -0.45000000 -0.15000000
0.15000000 -0.45000000 -0.05000000
0.15000000 -0.45000000 0.05000000
0.15000000 -0.45000000 0.15000000
0.15000000 -0.45000000 0.25000000
0.15000000 -0.45000000 0.35000000
0.15000000 -0.45000000 0.45000000
0.15000000 -0.35000000 -0.45000000
0.15000000 -0.35000000 -0.35000000
0.15000000 -0.35000000 -0.25000000
0.15000000 -0.35000000 -0.15000000
0.15000000 -0.35000000 -0.05000000
0.15000000 -0.35000000 0.05000000
0.15000000 -0.35000000 0.15000000
0.15000000 -0.35000000 0.25000000
0.15000000 -0.35000000 0.35000000
0.15000000 -0.35000000 0.45000000
0.15000000 -0.25000000 -0.45000000
0.15000000 -0.25000000 -0.35000000
0.15000000 -0.25000000 -0.25000000
0.15000000 -0.25000000 -0.15000000
0.15000000 -0.25000000 -0.05000000
0.15000000 -0.25000000 0.05000000
0.15000000 -0.25000000 0.15000000
0.15000000 -0.25000000 0.25000000
0.15000000 -0.25000000 0.35000000
0.15000000 -0.25000000 0.45000000
0.15000000 -0.15000000 -0.45000000
0.15000000 -0.15000000 -0.35000000
0.15000000 -0.15000000 -0.25000000
0.15000000 -0.15000000 -0.15000000
0.15000000 -0.15000000 -0.05000000
0.15000000 -0.15000000 0.05000000
0.15000000 -0.15000000 0.15000000
0.15000000 -0.15000000 0.25000000
0.15000000 -0.15000000 0.35000000
0.15000000 -0.15000000 0.45000000
0.15000000 -0.05000000 -0.45000000
0.15000000 -0.05000000 -0.35000000
0.15000000 -0.05000000 -0.25000000
0.15000000 -0.05000000 -0.15000000
0.15000000 -0.05000000 -0.05000000
0.15000000 -0.05000000 0.05000000
0.15000000 -0.05000000 0.15000000
0.15000000 -0.05000000 0.25000000
0.15000000 -0.05000000 0.35000000
0.15000000 -0.05000000 0.45000000
0.15000000 0.05000000 -0.45000000
0.15000000 0.05000000 -0.35000000
0.15000000 0.05000000 -0.25000000
0.15000000 0.05000000 -0.15000000
0.15000000 0.05000000 -0.05000000
0.15000000 0.05000000 0.05000000
0.15000000 0.05000000 0.15000000
0.15000000 0.05000000 0.25000000
0.15000000 0.05000000 0.35000000
0.15000000 0.05000000 0.45000000
0.15000000 0.15000000 -0.45000000
0.15000000 0.15000000 -0.35000000
0.15000000 0.15000000 -0.25000000
0.15000000 0.15000000 -0.15000000
0.15000000 0.15000000 -0.05000000
0.15000000 0.15000000 0.05000000
0.15000000 0.15000000 0.15000000
0.15000000 0.15000000 0.25000000
0.15000000 0.15000000 0.35000000
0.15000000 0.15000000 0.45000000
0.15000000 0.25000000 -0.45000000
0.15000000 0.25000000 -0.35000000
0.15000000 0.25000000 -0.25000000
0.15000000 0.25000000 -0.15000000
0.15000000 0.25000000 -0.05000000
0.15000000 0.25000000 0.05000000
0.15000000 0.25000000 0.15000000
0.15000000 0.25000000 0.25000000
0.15000000 0.25000000 0.35000000
0.15000000 0.25000000 0.45000000
0.15000000 0.35000000 -0.45000000
0.15000000 0.35000000 -0.35000000
0.15000000 0.35000000 -0.25000000
0.15000000 0.35000000 -0.15000000
0.15000000 0.35000000 -0.05000000
0.15000000 0.35000000 0.05000000
0.15000000 0.35000000 0.15000000
0.15000000 0.35000000 0.25000000
0.15000000 0.35000000 0.35000000
0.15000000 0.35000000 0.45000000
0.15000000 0.45000000 -0.45000000
0.15000000 0.45000000 -0.35000000
0.15000000 0.45000000 -0.25000000
0.15000000 0.45000000 -0.15000000
0.15000000 0.45000000 -0.05000000
0.15000000 0.45000000 0.05000000
0.15000000 0.45000000 0.15000000
0.15000000 0.45000000 0.25000000
0.15000000 0.45000000 0.35000000
0.15000000 0.45000000 0.45000000
0.25000000 -0.45000000 -0.45000000
0.25000000 -0.45000000 -0.35000000
0.25000000 -0.45000000 -0.25000000
0.25000000 -0.45000000 -0.15000000
0.25000000 -0.45000000 -0.05000000
0.25000000 -0.45000000 0.05000000
0.25000000 -0.45000000 0.15000000
0.25000000 -0.45000000 0.25000000
0.25000000 -0.45000000 0.35000000
0.25000000 -0.45000000 0.45000000
0.25000000 -0.35000000 -0.45000000
0.25000000 -0.35000000 -0.35000000
0.25000000 -0.35000000 -0.25000000
0.25000000 -0.35000000 -0.15000000
0.25000000 -0.35000000 -0.05000000
0.25000000 -0.35000000 0.05000000
0.25000000 -0.35000000 0.15000000
0.25000000 -0.35000000 0.25000000
0.25000000 -0.35000000 0.35000000
0.25000000 -0.35000000 0.45000000
0.25000000 -0.25000000 -0.45000000
0.25000000 -0.25000000 -0.35000000
0.25000000 -0.25000000 -0.25000000
0.25000000 -0.25000000 -0.15000000
0.25000000 -0.25000000 -0.05000000
0.25000000 -0.25000000 0.05000000
0.25000000 -0.25000000 0.15000000
0.25000000 -0.25000000 0.25000000
0.25000000 -0.25000000 0.35000000
0.25000000 -0.25000000 0.45000000
0.25000000 -0.15000000 -0.45000000
0.25000000 -0.15000000 -0.35000000
0.25000000 -0.15000000 -0.25000000
0.25000000 -0.15000000 -0.15000000
0.25000000 -0.15000000 -0.05000000
0.25000000 -0.15000000 0.05000000
0.25000000 -0.15000000 0.15000000
0.25000000 -0.15000000 0.25000000
0.25000000 -0.15000000 0.35000000
0.25000000 -0.15000000 0.45000000
0.25000000 -0.05000000 -0.45000000
0.25000000 -0.05000000 -0.35000000
0.25000000 -0.05000000 -0.25000000
0.25000000 -0.05000000 -0.15000000
0.25000000 -0.05000000 -0.05000000
0.25000000 -0.05000000 0.05000000
0.25000000 -0.05000000 0.15000000
0.25000000 -0.05000000 0.25000000
0.25000000 -0.05000000 0.35000000
0.25000000 -0.05000000 0.45000000
0.25000000 0.05000000 -0.45000000
0.25000000 0.05000000 -0.35000000
0.25000000 0.05000000 -0.25000000
0.25000000 0.05000000 -0.15000000
0.25000000 0.05000000 -0.05000000
0.25000000 0.05000000 0.05000000
0.25000000 0.05000000 0.15000000
0.25000000 0.05000000 0.25000000
0.25000000 0.05000000 0.35000000
0.25000000 0.05000000 0.45000000
0.25000000 0.15000000 -0.45000000
0.25000000 0.15000000 -0.35000000
0.25000000 0.15000000 -0.25000000
0.25000000 0.15000000 -0.15000000
0.25000000 0.15000000 -0.05000000
0.25000000 0.15000000 0.05000000
0.25000000 0.15000000 0.15000000
0.25000000 0.15000000 0.25000000
0.25000000 0.15000000 0.35000000
0.25000000 0.15000000 0.45000000
0.25000000 0.25000000 -0.45000000
0.25000000 0.25000000 -0.35000000
0.25000000 0.25000000 -0.25000000
0.25000000 0.25000000 -0.15000000
0.25000000 0.25000000 -0.05000000
0.25000000 0.25000000 0.05000000
0.25000000 0.25000000 0.15000000
0.25000000 0.25000000 0.25000000
0.25000000 0.25000000 0.35000000
0.25000000 0.25000000 0.45000000
0.25000000 0.35000000 -0.45000000
0.25000000 0.35000000 -0.35000000
0.25000000 0.35000000 -0.25000000
0.25000000 0.35000000 -0.15000000
0.25000000 0.35000000 -0.05000000
0.25000000 0.35000000 0.05000000
0.25000000 0.35000000 0.15000000
0.25000000 0.35000000 0.25000000
0.25000000 0.35000000 0.35000000
0.25000000 0.35000000 0.45000000
0.25000000 0.45000000 -0.45000000
0.25000000 0.45000000 -0.35000000
0.25000000 0.45000000 -0.25000000
0.25000000 0.45000000 -0.15000000
0.25000000 0.45000000 -0.05000000
0.25000000 0.45000000 0.05000000
0.25000000 0.45000000 0.15000000
0.25000000 0.45000000 0.25000000
0.25000000 0.45000000 0.35000000
0.25000000 0.45000000 0.45000000
0.35000000 -0.45000000 -0.45000000
0.35000000 -0.45000000 -0.35000000
0.35000000 -0.45000000 -0.25000000
0.35000000 -0.45000000 -0.15000000
0.35000000 -0.45000000 -0.05000000
0.35000000 -0.45000000 0.05000000
0.35000000 -0.45000000 0.15000000
0.35000000 -0.45000000 0.25000000
0.35000000 -0.45000000 0.35000000
0.35000000 -0.45000000 0.45000000
0.35000000 -0.35000000 -0.45000000
0.35000000 -0.35000000 -0.35000000
0.35000000 -0.35000000 -0.25000000
0.35000000 -0.35000000 -0.15000000
0.35000000 -0.35000000 -0.05000000
0.35000000 -0.35000000 0.05000000
0.35000000 -0.35000000 0.15000000
0.35000000 -0.35000000 0.25000000
0.35000000 -0.35000000 0.35000000
0.35000000 -0.35000000 0.45000000
0.35000000 -0.25000000 -0.45000000
0.35000000 -0.25000000 -0.35000000
0.35000000 -0.25000000 -0.25000000
0.35000000 -0.25000000 -0.15000000
0.35000000 -0.25000000 -0.05000000
0.35000000 -0.25000000 0.05000000
0.35000000 -0.25000000 0.15000000
0.35000000 -0.25000000 0.25000000
0.35000000 -0.25000000 0.35000000
0.35000000 -0.25000000 0.45000000
0.35000000 -0.15000000 -0.45000000
0.35000000 -0.15000000 -0.35000000
0.35000000 -0.15000000 -0.25000000
0.35000000 -0.15000000 -0.15000000
0.35000000 -0.15000000 -0.05000000
0.35000000 -0.15000000 0.05000000
0.35000000 -0.15000000 0.15000000
0.35000000 -0.15000000 0.25000000
0.35000000 -0.15000000 0.35000000
0.35000000 -0.15000000 0.45000000
0.35000000 -0.05000000 -0.45000000
0.35000000 -0.05000000 -0.35000000
0.35000000 -0.05000000 -0.25000000
0.35000000 -0.05000000 -0.15000000